Assets/LKHProbs~/skull.29.tsp
NAME : GeneratedProblem
COMMENT : SVGCrosshatch
TYPE : TSP
DIMENSION : 16
EDGE_WEIGHT_TYPE : EUC_2D
NODE_COORD_SECTION
1 6700 2500
2 6700 2600
3 6700 2700
4 6700 2800
5 6700 2900
6 6800 2400
7 6800 2500
8 6800 2600
9 6800 2700
10 6800 2800
11 6800 2900
12 7200 1700
13 7200 1800
14 7200 1900
15 7300 1900
16 7800 2900
EOF
